2536.81
0 13 67 6 7 8 1 3 2 9 10 4 56 5 0
0 141 19 18 14 96 24 23 22 20 21 105 11 0
0 35 36 28 31 26 25 17 37 33 30 34 29 27 32 0
0 38 16 49 39 45 15 52 44 42 41 47 43 46 0
0 53 59 70 60 61 57 58 55 149 142 64 40 65 54 62 0
0 79 74 75 73 72 71 76 80 48 86 66 68 77 78 0
0 83 84 85 82 81 95 88 94 93 92 91 89 90 0
0 98 97 99 114 69 101 104 106 107 108 0
0 109 111 123 117 128 115 116 113 112 120 100 119 103 0
0 124 125 122 134 133 132 138 140 121 131 129 127 130 126 0
0 135 143 136 137 144 145 146 139 0
0 50 118 51 102 110 87 148 150 147 63 12 0
